c ind 1 2 3 4 5 6 7 8 9 10 11 12 13 14 15 16 17 18 19 20 0
p cnf 126 187               
-4 25 0
-7 25 0
4 7 -25 0
-1 -25 28 0
-28 31 0
-5 26 0
-8 26 0
5 8 -26 0
-2 -26 29 0
-29 31 0
-6 27 0
-9 27 0
6 9 -27 0
-3 -27 30 0
-30 31 0
-31 -70 0
-4 -7 21 0
-21 24 0
-5 -8 22 0
-22 24 0
-6 -9 23 0
-23 24 0
-24 -70 0
-11 25 -41 0
41 -50 0
25 -35 0
2 26 -33 0
33 -35 0
-12 35 -42 0
42 -50 0
25 -36 0
3 27 -34 0
34 -36 0
-13 36 -43 0
43 -50 0
26 -37 0
1 25 -32 0
32 -37 0
-14 37 -44 0
44 -50 0
-15 26 -45 0
45 -50 0
26 -38 0
34 -38 0
-16 38 -46 0
46 -50 0
27 -39 0
32 -39 0
-17 39 -47 0
47 -50 0
27 -40 0
33 -40 0
-18 40 -48 0
48 -50 0
-19 27 -49 0
49 -50 0
-10 50 -51 0
51 -70 0
-11 52 0
-12 52 0
-13 52 0
-52 55 0
-14 53 0
-15 53 0
-16 53 0
-53 55 0
-17 54 0
-18 54 0
-19 54 0
-54 55 0
-55 10 -56 0
56 -70 0
20 -58 0
-20 10 -57 0
57 -58 0
58 -69 0
11 -59 0
20 -59 0
12 -60 0
20 -60 0
13 -61 0
20 -61 0
14 -62 0
20 -62 0
15 -63 0
20 -63 0
16 -64 0
20 -64 0
17 -65 0
20 -65 0
18 -66 0
20 -66 0
19 -67 0
20 -67 0
59 60 61 62 63 64 65 66 67 -68 0
68 -69 0
69 -70 0
-1 2 -71 0
71 -97 0
-1 -2 72 0
1 2 72 0
-2 2 72 0
-4 5 -73 0
-72 73 -74 0
74 -97 0
-4 -5 75 0
4 5 75 0
-5 5 75 0
-72 -75 76 0
-7 8 -77 0
-76 77 -78 0
78 -97 0
-7 -8 79 0
7 8 79 0
-8 8 79 0
-76 -79 80 0
-11 15 -81 0
-80 81 -82 0
82 -97 0
-11 -15 83 0
11 15 83 0
-15 15 83 0
-80 -83 84 0
-12 14 -85 0
-84 85 -86 0
86 -97 0
-12 -14 87 0
12 14 87 0
-14 14 87 0
-84 -87 88 0
-13 16 -89 0
-88 89 -90 0
90 -97 0
-13 -16 91 0
13 16 91 0
-16 16 91 0
-88 -91 92 0
-17 18 -93 0
-92 93 -94 0
94 -97 0
97 -125 0
-2 3 -98 0
98 -124 0
-2 -3 99 0
2 3 99 0
-3 3 99 0
-5 6 -100 0
-99 100 -101 0
101 -124 0
-5 -6 102 0
5 6 102 0
-6 6 102 0
-99 -102 103 0
-8 9 -104 0
-103 104 -105 0
105 -124 0
-8 -9 106 0
8 9 106 0
-9 9 106 0
-103 -106 107 0
-12 13 -108 0
-107 108 -109 0
109 -124 0
-12 -13 110 0
12 13 110 0
-13 13 110 0
-107 -110 111 0
-14 17 -112 0
-111 112 -113 0
113 -124 0
-14 -17 114 0
14 17 114 0
-17 17 114 0
-111 -114 115 0
-15 19 -116 0
-115 116 -117 0
117 -124 0
-15 -19 118 0
15 19 118 0
-19 19 118 0
-115 -118 119 0
-16 18 -120 0
-119 120 -121 0
121 -124 0
124 -125 0
70 0
125 0
